(set-info :source  loris-7.ddns.comp.nus.edu.sg/~project/hip/) 
;Variables declarations
(declare-fun a_primed () Int)
(declare-fun b_primed () Int)
(declare-fun c_primed () Int)
(declare-fun v_int_27_5375 () Int)
(declare-fun v_int_27_5376 () Int)
(declare-fun v_int_29_5377 () Int)
(declare-fun v_int_29_5378 () Int)
(declare-fun res () Int)
(declare-fun flted_21_5374 () Int)
(declare-fun na () Int)
(declare-fun a () Int)
(declare-fun flted_21_5373 () Int)
(declare-fun nb () Int)
(declare-fun b () Int)
(declare-fun flted_21_5372 () Int)
(declare-fun bha () Int)
(declare-fun nc () Int)
(declare-fun c () Int)
(declare-fun tmp_5379 () Int)
(declare-fun v_node_29_5172_primed () Int)
;Relations declarations
;Axioms assertions
;Antecedent
(assert (= a_primed a))
(assert (= b_primed b))
(assert (= c_primed c))
(assert (= flted_21_5374 1))
(assert (= flted_21_5373 0))
(assert (= flted_21_5372 0))
(assert (= v_int_27_5375 0))
(assert (= v_int_27_5376 1))
(assert (= v_int_29_5377 0))
(assert (= v_int_29_5378 0))
(assert (= res v_node_29_5172_primed))
(assert (or (and (and (and (= flted_21_5374 0) (<= 2 bha)) (<= 1 na)) (> a 0)) (or (and (and (and (< a 1) (= na 0)) (= bha 1)) (= flted_21_5374 0)) (and (and (and (= flted_21_5374 1) (<= 1 bha)) (<= 1 na)) (> a 0)))))
(assert (or (and (and (and (= flted_21_5373 0) (<= 2 bha)) (<= 1 nb)) (> b 0)) (or (and (and (and (< b 1) (= nb 0)) (= bha 1)) (= flted_21_5373 0)) (and (and (and (= flted_21_5373 1) (<= 1 bha)) (<= 1 nb)) (> b 0)))))
(assert (or (and (and (and (= flted_21_5372 0) (<= 2 bha)) (<= 1 nc)) (> c 0)) (or (and (and (and (< c 1) (= nc 0)) (= bha 1)) (= flted_21_5372 0)) (and (and (and (= flted_21_5372 1) (<= 1 bha)) (<= 1 nc)) (> c 0)))))
(assert (= tmp_5379 1))
(assert (= v_node_29_5172_primed 2))
(assert (not (= tmp_5379 v_node_29_5172_primed)))
;Negation of Consequence
(assert (not false))
(check-sat)